# created by fftool

units real
boundary p p p

atom_style full
#bond_style harmonic
#angle_style harmonic

special_bonds lj/coul 0.0 0.0 0.0

# remove hybrid if not necessary
pair_style hybrid lj/cut/coul/long 10.0 10.0
# pair_modify tail yes
kspace_style pppm 1.0e-5

read_data data.lmp

pair_coeff    1    1 lj/cut/coul/long     0.000000     0.000000  # C C
pair_coeff    1    2 lj/cut/coul/long     0.000000     0.000000  # C H
pair_coeff    1    3 lj/cut/coul/long     0.074928     3.190000   # C O
pair_coeff    2    2 lj/cut/coul/long     0.000000     0.000000  # H H
pair_coeff    2    3 lj/cut/coul/long     0.000000     0.000000  # H O
pair_coeff    3    3 lj/cut/coul/long     0.037118     3.166800  # O O

# minimize 1.0e-4 1.0e-6 100 1000
# reset_timestep 0

neighbor 2.0 bin
# neigh_modify delay 0 every 1 check yes

timestep 2.0

variable TK equal 300.0
variable PBAR equal 1.0

velocity all create ${TK} 12345

#NVT Ensemble 
fix TVSTAT all nvt temp/berendsen ${TK} ${TK} 100 
thermo 1000
thermo_style custom step cpu etotal ke pe evdwl ecoul elong temp press vol density
run 50000
unfix TVSTAT
fix nve EVSTAT all nve
run 50000

dump TRAJ all custom 500 dump.lammpstrj id mol type element q xu yu zu
dump_modify TRAJ element C H O

# restart 10000 restart1.lmp restart2.lmp

# uncomment the following to rescale to average volume at end of equilibration
#variable vinst equal vol
#fix VAVG all ave/time 10 1000 50000 v_vinst

#run 50000

#variable lscale equal (f_VAVG/v_vinst)^(1.0/3.0)
#print "scaling coordinates by ${lscale}"
#change_box all x scale ${lscale} y scale ${lscale} z scale ${lscale} remap

#unfix VAVG
#unfix TPSTAT
#fix TSTAT all nvt temp ${TK} ${TK} 100

run 1000000

write_data data.eq.lmp
