# created by fftool
units real
boundary p p p
##
variable equi_steps equal 100000 # 100 ps 
variable total_steps equal 1000000 # 1 ns
variable v1  equal step  
variable v2  equal cpu
variable v3  equal etotal
variable v4  equal ke
variable v5  equal pe
variable v6  equal evdwl
variable v7  equal ecoul
variable v8  equal elong
variable v9  equal temp
variable v10  equal press
variable TK  equal 300.0
variable PBAR equal 1.0
##
atom_style full
#bond_style zero nocoeff
#angle_style zero nocoeff
bond_style harmonic
angle_style harmonic
special_bonds lj/coul 0.0 0.0 0.0
# remove hybrid if not necessary
pair_style hybrid lj/cut/coul/long 10.0 10.0
# pair_modify tail yes
kspace_style pppm 1.0e-5
read_data data.lmp
pair_coeff    1    1 lj/cut/coul/long     0.000000     0.000000  # C C
pair_coeff    1    2 lj/cut/coul/long     0.000000     0.000000  # C H
pair_coeff    1    3 lj/cut/coul/long     0.074928     3.190000  # C O
pair_coeff    2    2 lj/cut/coul/long     0.000000     0.000000  # H H
pair_coeff    2    3 lj/cut/coul/long     0.000000     0.000000  # H O
pair_coeff    3    3 lj/cut/coul/long     0.155300     3.166800  # O O
######################
group H2O-SPC type 2 3
group graphite type 1

###################### Minimization ####################################
minimize 1.0e-4 1.0e-6 100 1000
reset_timestep 0
########################################################################
neighbor 2.0 bin
# neigh_modify delay 0 every 1 check yes


velocity H2O-SPC  create ${TK} 12345 dist gaussian
#run 0                             # temperature may not be 300K
#velocity H2O-SPC  scale ${TK}     # now it should be
#fix C_atom_fix graphite setforce 0.0 0.0 0.0 
#velocity graphite set 0.0 0.0 0.0 

fix shake_H2O H2O-SPC shake 0.0001 100 0 b 1 a 1 # shake-H2O is fix id .H2O-SPC is group id 
timestep 1.0


####### Equilibriation 
fix TVSTAT H2O-SPC nvt temp ${TK} ${TK} 100 
thermo 1000
thermo_style custom step cpu etotal ke pe evdwl ecoul elong temp press lx ly lz
#thermo_modify line yaml format float
fix statthermo_equi1 all print 1 "${v1} ${v2} ${v3} ${v4} ${v5} ${v6} ${v7} ${v8} ${v9} ${v10}" screen yes file thermo_equi1.stat
dump equi1 all custom 500 equi1.lammpstrj id mol type element q xu yu zu
dump_modify equi1 element C H O
run ${equi_steps}
unfix TVSTAT
fix EVSTAT H2O-SPC nve
thermo 1000
thermo_style custom step cpu etotal ke pe evdwl ecoul elong temp press
#thermo_modify line yaml format float
fix statthermo_equi2 all print 1 "${v1} ${v2} ${v3} ${v4} ${v5} ${v6} ${v7} ${v8} ${v9} ${v10}" screen yes file thermo_equi2.stat
dump equi2 all custom 500 equi2.lammpstrj id mol type element q xu yu zu
dump_modify equi2 element C H O
run ${equi_steps}
unfix EVSTAT
reset_timestep 0
###  Production
fix EVSTAT1 H2O-SPC nve
thermo 1000
thermo_style custom step cpu etotal ke pe evdwl ecoul elong temp press
#thermo_modify line yaml format float
fix statthermo_prod all print 1 "${v1} ${v2} ${v3} ${v4} ${v5} ${v6} ${v7} ${v8} ${v9} ${v10}" screen yes file thermo_prod.stat
dump prod all custom 500 prod.lammpstrj id mol type element q xu yu zu
dump_modify prod element C H O
run ${total_steps}

write_data data.eq.lmp
